c status 15 1469274501367
c status 11 1469274501367
s td 12 11 24
b 1 1 2 22 21 11 17 20
b 2 24 18 8 3 9 13 23
b 3 6 22 12 21 5 7 14
b 4 10 3 4 5 9 11 17
b 5 15 19 16 18 8 7 14
b 6 19 16 18 8 3 4 7 14 20
b 7 2 22 12 21 11 13 17 20 23
b 8 16 18 8 3 4 7 9 14 17 20
b 9 18 8 3 4 7 9 13 14 17 20 23
b 10 22 12 21 5 7 11 13 14 17 20 23
b 11 21 4 5 7 11 13 14 17 20 23
b 12 3 4 5 7 9 11 13 14 17 20 23
1 7
7 10
10 11
11 12
12 9
9 8
8 6
12 4
9 2
6 5
10 3
